2516, 0, 0, 35, 2
2517, 0, 1, 52, 1
2518, 0, 2, 74, 3
2519, 0, 3, 61, 4
2520, 0, 4, 97, 0
2521, 1, 0, 50, 4
2522, 1, 1, 47, 1
2523, 1, 2, 78, 2
2524, 1, 3, 86, 0
2525, 1, 4, 83, 3
2526, 2, 0, 39, 2
2527, 2, 1, 49, 3
2528, 2, 2, 42, 0
2529, 2, 3, 58, 1
2530, 2, 4, 65, 4
2531, 3, 0, 41, 1
2532, 3, 1, 64, 4
2533, 3, 2, 42, 2
2534, 3, 3, 33, 0
2535, 3, 4, 45, 3
